
******************************************************************************
This program contains Ipopt, a library for large-scale nonlinear optimization.
 Ipopt is released as open source code under the Eclipse Public License (EPL).
         For more information visit http://projects.coin-or.org/Ipopt

This version of Ipopt was compiled from source code available at
    https://github.com/IDAES/Ipopt as part of the Institute for the Design of
    Advanced Energy Systems Process Systems Engineering Framework (IDAES PSE
    Framework) Copyright (c) 2018-2019. See https://github.com/IDAES/idaes-pse.

This version of Ipopt was compiled using HSL, a collection of Fortran codes
    for large-scale scientific computation.  All technical papers, sales and
    publicity material resulting from use of the HSL codes within IPOPT must
    contain the following acknowledgement:
        HSL, a collection of Fortran codes for large-scale scientific
        computation. See http://www.hsl.rl.ac.uk.
******************************************************************************

This is Ipopt version 3.13.2, running with linear solver ma27.

Number of nonzeros in equality constraint Jacobian...:     1336
Number of nonzeros in inequality constraint Jacobian.:        0
Number of nonzeros in Lagrangian Hessian.............:     1696

Total number of variables............................:      512
                     variables with only lower bounds:      128
                variables with lower and upper bounds:      320
                     variables with only upper bounds:        0
Total number of equality constraints.................:      508
Total number of inequality constraints...............:        0
        inequality constraints with only lower bounds:        0
   inequality constraints with lower and upper bounds:        0
        inequality constraints with only upper bounds:        0

iter    objective    inf_pr   inf_du lg(mu)  ||d||  lg(rg) alpha_du alpha_pr  ls
   0  0.0000000e+00 3.99e-01 1.42e-14  -1.0 0.00e+00    -  0.00e+00 0.00e+00   0
   1  1.1686971e-01 1.63e+00 5.54e+02  -1.0 4.22e+04    -  7.55e-01 9.90e-01h  1
   2  1.2213296e-01 2.81e-01 1.45e+02  -1.0 1.74e+03    -  8.45e-01 9.90e-01h  1
   3  1.2204507e-01 1.49e-02 1.80e+01  -1.0 1.70e+02    -  9.90e-01 9.90e-01h  1
   4  1.2131598e-01 1.08e-04 1.26e+04  -1.0 1.55e+03    -  9.89e-01 9.90e-01h  1
   5  1.3057610e-01 1.96e-06 5.20e+03  -1.0 5.86e+03    -  9.90e-01 9.90e-01H  1
   6  1.2170357e-01 6.98e-05 7.48e+07  -3.8 5.50e+03    -  9.97e-01 5.00e-01f  2
   7  1.1855358e-01 2.67e-07 5.65e+04  -3.8 2.81e+03    -  1.00e+00 1.00e+00H  1
In iteration 7, 32 Slacks too small, adjusting variable bounds
   8  1.1855361e-01 1.97e-10 3.01e+08  -3.8 9.71e+00    -  1.00e+00 1.00e+00h  1
   9  1.1855361e-01 8.83e-12 4.77e-07  -3.8 1.58e-03    -  1.00e+00 1.00e+00h  1
iter    objective    inf_pr   inf_du lg(mu)  ||d||  lg(rg) alpha_du alpha_pr  ls
  10  1.1855357e-01 2.60e-12 2.88e+04  -9.0 9.78e+00    -  1.00e+00 1.00e+00H  1
  11  1.1855357e-01 2.36e-12 3.64e-12  -9.0 9.98e-03    -  1.00e+00 1.00e+00h  1

Number of Iterations....: 11

                                   (scaled)                 (unscaled)
Objective...............:   1.1855357165825270e-01    1.1855357165825270e-01
Dual infeasibility......:   3.6379788070917130e-12    3.6379788070917130e-12
Constraint violation....:   2.3616664179826330e-12    2.3616664179826330e-12
Complementarity.........:   9.0909135850244561e-10    9.0909135850244561e-10
Overall NLP error.......:   2.4884114196443045e-10    9.0909135850244561e-10


Number of objective function evaluations             = 20
Number of objective gradient evaluations             = 12
Number of equality constraint evaluations            = 20
Number of inequality constraint evaluations          = 0
Number of equality constraint Jacobian evaluations   = 12
Number of inequality constraint Jacobian evaluations = 0
Number of Lagrangian Hessian evaluations             = 11
Total CPU secs in IPOPT (w/o function evaluations)   =      0.026
Total CPU secs in NLP function evaluations           =      0.241

EXIT: Optimal Solution Found.
